99 100
90 38 1
82 24 1
75 18 1
98 88 1
97 27 1
99 4 1
85 14 1
85 24 1
76 28 1
35 46 1
69 20 1
79 21 1
99 41 1
88 49 1
96 39 1
82 30 1
95 15 1
95 14 1
96 19 1
93 50 1
99 1 1
75 40 1
69 11 1
66 82 1
76 49 1
47 85 1
79 64 1
69 27 1
97 8 1
94 28 1
75 30 1
69 32 1
90 29 1
99 39 1
11 7 1
18 100 1
88 61 1
76 12 1
79 45 1
95 28 1
67 6 1
46 47 1
39 45 1
84 19 1
85 12 1
91 44 1
70 56 1
82 21 1
77 30 1
93 2 1
14 31 1
89 35 1
76 9 1
68 22 1
79 16 1
68 11 1
84 50 1
87 3 1
86 62 1
86 98 1
99 3 1
78 46 1
75 21 1
86 47 1
88 17 1
68 50 1
68 41 1
90 8 1
86 43 1
86 17 2
6 23 1
67 30 1
37 31 1
3 45 1
79 17 1
87 14 1
69 30 1
91 35 1
97 22 1
80 9 1
91 41 1
34 91 1
87 39 1
24 17 1
86 14 1
42 50 1
38 36 1
89 49 1
11 82 1
93 8 1
74 16 1
100 45 1
95 11 1
73 9 1
100 9 1
27 67 1
36 72 1
97 23 1
99 13 1
100 100 
100 100 
100 100 
100 100 
100 100 
100 100 
100 100 
100 100 
100 100 
100 100 
100 100 
100 100 
100 100 
100 100 
100 100 
100 100 
100 100 
100 100 
100 100 
100 100 
100 100 
100 100 
100 100 
100 100 
100 100 
100 100 
100 100 
100 100 
100 100 
100 100 
100 100 
100 100 
100 100 
100 100 
100 100 
100 100 
100 100 
100 100 
100 100 
100 100 
100 100 
100 100 
100 100 
100 100 
100 100 
100 100 
100 100 
100 100 
100 100 
100 100 
100 100 
100 100 
100 100 
100 100 
100 100 
100 100 
100 100 
100 100 
100 100 
100 100 
100 100 
100 100 
100 100 
100 100 
100 100 
100 100 
100 100 
100 100 
100 100 
100 100 
100 100 
100 100 
100 100 
100 100 
100 100 
100 100 
100 100 
100 100 
100 100 
100 100 
100 100 
100 100 
100 100 
100 100 
100 100 
100 100 
100 100 
100 100 
100 100 
100 100 
100 100 
100 100 
100 100 
100 100 
100 100 
100 100 
100 100 
100 100 
100 100 
100 100 
